p wcnf 196 294 295 
1 32 -93 0 
1 179 -7 0 
1 91 10 0 
1 -38 105 0 
1 119 60 0 
1 -47 -8 0 
1 -111 178 0 
1 -7 138 0 
1 -35 145 0 
1 98 -44 0 
1 7 -41 0 
1 -54 -128 0 
1 127 -140 0 
1 132 -188 0 
1 181 103 0 
1 195 -181 0 
1 132 -128 0 
1 192 -134 0 
1 176 125 0 
1 46 30 0 
1 -109 159 0 
1 -21 123 0 
1 99 -80 0 
1 -43 69 0 
1 -168 -122 0 
1 -35 -143 0 
1 107 136 0 
1 96 -41 0 
1 119 -176 0 
1 93 131 0 
1 -150 117 0 
1 -40 180 0 
1 -193 -145 0 
1 -28 188 0 
1 -172 26 0 
1 -58 43 0 
1 130 54 0 
1 192 33 0 
1 61 -196 0 
1 130 27 0 
1 -70 -147 0 
1 -121 140 0 
1 140 136 0 
1 129 -166 0 
1 -194 9 0 
1 90 -188 0 
1 157 122 0 
1 -162 41 0 
1 -143 -45 0 
1 -2 -91 0 
1 22 -45 0 
1 123 99 0 
1 -100 19 0 
1 -167 -91 0 
1 172 19 0 
1 -20 140 0 
1 -99 186 0 
1 -72 -63 0 
1 -30 -51 0 
1 79 -47 0 
1 -128 -19 0 
1 135 70 0 
1 184 93 0 
1 47 -32 0 
1 191 85 0 
1 169 -60 0 
1 121 84 0 
1 -76 -50 0 
1 -107 56 0 
1 77 -195 0 
1 -7 140 0 
1 123 -183 0 
1 94 155 0 
1 -36 65 0 
1 10 -46 0 
1 156 -134 0 
1 16 29 0 
1 180 108 0 
1 26 -132 0 
1 -92 -29 0 
1 -95 141 0 
1 75 19 0 
1 18 55 0 
1 -130 -26 0 
1 -102 13 0 
1 88 103 0 
1 -49 182 0 
1 -112 153 0 
1 56 -130 0 
1 -29 -6 0 
1 178 1 0 
1 -131 162 0 
1 52 157 0 
1 72 58 0 
1 5 -119 0 
1 -22 118 0 
1 11 189 0 
1 -176 -109 0 
1 -135 -139 0 
1 -165 58 0 
1 195 -57 0 
1 -163 135 0 
1 -6 152 0 
1 110 -122 0 
1 -33 75 0 
1 -122 41 0 
1 -94 -146 0 
1 34 -21 0 
1 -14 -191 0 
1 153 -118 0 
1 -150 -180 0 
1 101 54 0 
1 12 -123 0 
1 -30 -110 0 
1 -151 143 0 
1 137 71 0 
1 -15 -112 0 
1 -82 -68 0 
1 -87 -34 0 
1 -178 -124 0 
1 133 -140 0 
1 -29 -24 0 
1 -23 -118 0 
1 67 -161 0 
1 -157 122 0 
1 166 -156 0 
1 -187 4 0 
1 -52 124 0 
1 -64 -122 0 
1 55 84 0 
1 84 -176 0 
1 -21 -19 0 
1 125 136 0 
1 -18 -19 0 
1 -177 -89 0 
1 132 -147 0 
1 -7 -12 0 
1 25 -154 0 
1 183 87 0 
1 3 -140 0 
1 -62 -176 0 
1 14 -156 0 
1 -74 13 0 
1 187 -9 0 
1 156 -50 0 
1 -94 -7 0 
1 123 -34 0 
1 9 134 0 
1 121 10 0 
1 -62 135 0 
1 -92 188 0 
1 24 -107 0 
1 176 -31 0 
1 175 -59 0 
1 141 73 0 
1 -110 161 0 
1 -110 100 0 
1 -118 -50 0 
1 -101 -55 0 
1 -169 -71 0 
1 -95 23 0 
1 145 121 0 
1 -55 -54 0 
1 -95 27 0 
1 -82 44 0 
1 99 -94 0 
1 138 -31 0 
1 -55 10 0 
1 104 157 0 
1 -182 -33 0 
1 150 134 0 
1 -51 86 0 
1 143 -147 0 
1 -126 -129 0 
1 -97 132 0 
1 160 -76 0 
1 -49 143 0 
1 56 -138 0 
1 147 -168 0 
1 149 92 0 
1 -100 -49 0 
1 71 -176 0 
1 143 17 0 
1 -18 29 0 
1 47 193 0 
1 100 -77 0 
1 15 140 0 
1 194 117 0 
1 -164 78 0 
1 -133 39 0 
1 -98 43 0 
1 25 87 0 
1 -105 -36 0 
1 -164 150 0 
1 -180 -88 0 
1 -196 108 0 
1 82 -151 0 
1 91 -2 0 
1 66 100 0 
1 28 -33 0 
1 137 -182 0 
1 -167 82 0 
1 -106 -79 0 
1 -67 142 0 
1 -157 72 0 
1 -22 -141 0 
1 16 -185 0 
1 13 9 0 
1 85 -188 0 
1 -149 179 0 
1 -151 126 0 
1 -176 -132 0 
1 127 -169 0 
1 191 -156 0 
1 -149 72 0 
1 9 27 0 
1 -58 81 0 
1 75 78 0 
1 182 -56 0 
1 -125 -69 0 
1 -74 138 0 
1 93 -152 0 
1 145 -107 0 
1 66 32 0 
1 143 -95 0 
1 19 23 0 
1 79 130 0 
1 77 -57 0 
1 179 -111 0 
1 72 10 0 
1 146 -40 0 
1 -191 13 0 
1 -58 -38 0 
1 -84 -156 0 
1 74 45 0 
1 -16 81 0 
1 -195 -123 0 
1 -83 144 0 
1 41 39 0 
1 151 -153 0 
1 112 169 0 
1 -129 -176 0 
1 108 -22 0 
1 -184 96 0 
1 -138 123 0 
1 73 -189 0 
1 99 9 0 
1 -7 -31 0 
1 -12 69 0 
1 -75 -100 0 
1 145 -16 0 
1 -69 -153 0 
1 -85 98 0 
1 -112 117 0 
1 -174 51 0 
1 -27 40 0 
1 -110 53 0 
1 -132 -97 0 
1 -165 187 0 
1 -140 -10 0 
1 4 -51 0 
1 -129 -73 0 
1 130 -143 0 
1 -9 -81 0 
1 139 76 0 
1 123 158 0 
1 136 21 0 
1 -62 -157 0 
1 7 -34 0 
1 10 -76 0 
1 37 -44 0 
1 -39 -13 0 
1 -149 95 0 
1 -47 136 0 
1 3 46 0 
1 -13 23 0 
1 30 187 0 
1 -14 -2 0 
1 186 -193 0 
1 -181 -34 0 
1 -193 -36 0 
1 145 -61 0 
1 107 -142 0 
1 -42 132 0 
1 153 67 0 
1 35 130 0 
1 -26 -111 0 
1 -192 -92 0 
1 -83 74 0 
1 -24 169 0 
1 174 39 0 
1 83 -116 0 
1 59 130 0 
1 189 -111 0 
